data;


param d:= 100;
param r:=5;
param p:=0.780000;
param M:=1000;
param U:=
         1         1       -7.908227e-01
         2         1       -1.887040e-01
         3         1        2.000795e+00
         4         1       -2.891730e-01
         5         1       -1.538098e+00
         6         1       -2.144591e-01
         7         1       -3.013315e-01
         8         1       -9.289794e-01
         9         1        9.652772e-02
        10         1        1.729705e-01
        11         1       -2.187676e-01
        12         1       -2.238503e+00
        13         1        1.011903e+00
        14         1        4.744863e-01
        15         1       -1.483327e-01
        16         1        1.993773e+00
        17         1       -6.843421e-01
        18         1        1.007784e+00
        19         1        6.237675e-01
        20         1        5.092970e-03
        21         1       -2.083372e+00
        22         1       -5.262909e-01
        23         1        1.634363e+00
        24         1        1.566343e+00
        25         1        6.996673e-02
        26         1       -5.095846e-01
        27         1        2.319775e+00
        28         1        1.676450e+00
        29         1       -2.195078e-01
        30         1       -1.942974e+00
        31         1       -5.632158e-01
        32         1       -1.073158e+00
        33         1       -9.061962e-01
        34         1        2.662739e-01
        35         1        3.973085e-01
        36         1       -4.599709e-01
        37         1        3.927988e-01
        38         1       -1.656909e-01
        39         1        1.216223e-01
        40         1        1.584606e+00
        41         1        3.076604e-01
        42         1        3.392380e-01
        43         1       -5.650160e-01
        44         1        1.484053e-01
        45         1       -6.875984e-01
        46         1       -6.053695e-01
        47         1       -6.333621e-01
        48         1       -1.920990e-01
        49         1       -6.171465e-01
        50         1       -7.986409e-02
        51         1        1.037292e+00
        52         1       -6.374739e-01
        53         1       -1.453565e+00
        54         1       -5.969656e-01
        55         1        3.632922e-01
        56         1       -1.177922e+00
        57         1        8.667808e-01
        58         1       -7.633627e-01
        59         1       -1.831599e+00
        60         1        5.509828e-02
        61         1       -7.431424e-01
        62         1        4.315898e-01
        63         1       -1.221131e-01
        64         1        2.489274e-01
        65         1        6.547803e-01
        66         1       -1.153060e+00
        67         1        1.095984e+00
        68         1        9.892308e-01
        69         1       -5.430246e-01
        70         1        6.250596e-01
        71         1       -8.627867e-01
        72         1        2.095667e+00
        73         1       -4.495314e-01
        74         1        3.748108e-01
        75         1       -2.385396e+00
        76         1       -5.604601e-01
        77         1        6.449697e-01
        78         1        7.515382e-01
        79         1        5.556295e-01
        80         1       -7.906161e-02
        81         1        2.019664e-01
        82         1        1.114659e+00
        83         1        1.564093e+00
        84         1        2.076533e+00
        85         1        1.294766e+00
        86         1        6.862405e-01
        87         1        1.755947e+00
        88         1       -1.614296e+00
        89         1        2.894983e-01
        90         1       -6.777042e-01
        91         1       -5.669322e-01
        92         1       -1.316101e+00
        93         1        1.219055e+00
        94         1        8.478389e-01
        95         1       -6.940120e-01
        96         1       -8.459008e-01
        97         1       -1.013301e+00
        98         1       -5.689607e-01
        99         1        2.499814e-01
       100         1       -1.214699e+00
         1         2        5.248408e-02
         2         2        1.028146e+00
         3         2        3.129532e-01
         4         2        1.670804e+00
         5         2        3.006863e-02
         6         2       -1.326337e+00
         7         2       -5.536976e-01
         8         2       -3.043169e-01
         9         2       -2.697172e-01
        10         2        2.069865e-01
        11         2        1.523352e+00
        12         2        9.655945e-01
        13         2        9.530600e-01
        14         2        1.644458e+00
        15         2       -4.534002e-01
        16         2        1.597546e+00
        17         2        1.158406e+00
        18         2        1.561836e-01
        19         2        4.446296e-01
        20         2        1.185602e+00
        21         2        3.236334e-01
        22         2       -9.674361e-01
        23         2        1.427418e+00
        24         2        6.022375e-01
        25         2        4.180586e-01
        26         2       -5.914989e-01
        27         2       -9.289494e-01
        28         2       -4.309458e-01
        29         2        6.118983e-01
        30         2       -1.497471e-01
        31         2        8.084444e-01
        32         2       -7.928096e-02
        33         2        1.074484e+00
        34         2       -4.120834e-01
        35         2        1.979455e-01
        36         2        1.536543e+00
        37         2       -1.594543e+00
        38         2        5.380687e-01
        39         2        6.054732e-01
        40         2        9.633668e-01
        41         2       -7.743750e-01
        42         2       -1.172152e-01
        43         2        3.015717e-02
        44         2        6.344761e-01
        45         2       -1.348827e-02
        46         2       -4.194143e-01
        47         2       -1.164987e-01
        48         2        9.468995e-01
        49         2        1.579928e+00
        50         2        4.746678e-01
        51         2       -1.645881e-01
        52         2        1.284792e+00
        53         2       -1.713257e+00
        54         2       -6.846291e-01
        55         2       -5.561840e-01
        56         2       -8.215692e-01
        57         2       -3.805088e-01
        58         2       -3.980342e-01
        59         2       -1.859422e+00
        60         2       -3.226010e-01
        61         2       -1.493109e+00
        62         2        1.249617e+00
        63         2       -2.695712e+00
        64         2        3.392029e+00
        65         2       -3.489896e-01
        66         2        5.339514e-01
        67         2       -1.239277e-02
        68         2        6.422309e-01
        69         2       -3.696216e-03
        70         2       -4.082365e-01
        71         2        1.816461e+00
        72         2       -7.515690e-01
        73         2       -1.059932e+00
        74         2        1.677794e+00
        75         2       -1.988916e+00
        76         2       -3.675364e-01
        77         2       -9.325886e-01
        78         2        1.507697e+00
        79         2       -1.149804e+00
        80         2       -1.183039e+00
        81         2        2.059578e+00
        82         2       -2.391093e-01
        83         2        3.005771e-01
        84         2        2.793430e-01
        85         2       -9.512231e-01
        86         2        2.313953e-01
        87         2        2.237079e-01
        88         2        1.615995e+00
        89         2       -6.728864e-01
        90         2       -1.546279e+00
        91         2        7.021416e-02
        92         2       -1.638871e+00
        93         2       -1.695241e+00
        94         2       -4.570071e-01
        95         2       -5.767248e-01
        96         2       -8.469869e-01
        97         2        8.025720e-01
        98         2       -4.874161e-01
        99         2       -1.355379e+00
       100         2       -1.957912e+00
         1         3       -3.414853e-01
         2         3       -8.235373e-01
         3         3       -9.748397e-01
         4         3        1.232559e+00
         5         3       -1.331484e+00
         6         3       -1.677356e+00
         7         3       -2.072590e+00
         8         3        2.100569e-01
         9         3       -6.535612e-01
        10         3       -2.489921e+00
        11         3        9.602476e-01
        12         3        7.392684e-01
        13         3       -1.809400e+00
        14         3       -1.435509e+00
        15         3        7.869140e-01
        16         3        1.694756e+00
        17         3        1.484227e+00
        18         3       -1.681020e+00
        19         3        2.609425e-01
        20         3       -5.183954e-01
        21         3       -1.995951e+00
        22         3       -7.631126e-01
        23         3       -5.343148e-01
        24         3       -9.593922e-01
        25         3        4.312964e-01
        26         3        1.697357e+00
        27         3       -2.071576e-02
        28         3       -1.185438e+00
        29         3       -7.654120e-01
        30         3       -1.021830e-01
        31         3        5.798559e-01
        32         3        1.426774e+00
        33         3       -8.582293e-01
        34         3       -6.040851e-01
        35         3       -4.707602e-01
        36         3        1.759045e-01
        37         3       -2.250133e-01
        38         3        3.426263e-01
        39         3        5.442817e-02
        40         3        4.081063e-01
        41         3       -6.349940e-01
        42         3        4.597559e-02
        43         3       -4.441002e-01
        44         3        7.332448e-01
        45         3       -3.446766e-01
        46         3        1.398851e+00
        47         3       -1.035954e+00
        48         3       -5.602978e-01
        49         3        7.089135e-01
        50         3       -7.391428e-01
        51         3        4.564838e-01
        52         3       -1.131510e-01
        53         3        8.239375e-01
        54         3        1.807005e+00
        55         3       -1.037286e-01
        56         3        4.303039e-01
        57         3        8.874300e-01
        58         3        2.008506e+00
        59         3       -3.621815e-02
        60         3       -1.174520e+00
        61         3        2.482783e+00
        62         3        8.291093e-03
        63         3        1.085829e+00
        64         3       -2.438022e-01
        65         3        3.230872e-01
        66         3        5.847128e-02
        67         3        8.602739e-01
        68         3       -1.756656e+00
        69         3        1.020061e+00
        70         3       -4.143311e-01
        71         3        1.392133e+00
        72         3       -5.811730e-01
        73         3        9.692332e-01
        74         3       -7.810054e-01
        75         3       -7.139509e-01
        76         3       -7.745030e-01
        77         3       -3.900258e-01
        78         3        1.939290e-01
        79         3       -4.268062e-01
        80         3       -9.815329e-01
        81         3       -1.029898e+00
        82         3        3.369850e-01
        83         3        9.770550e-01
        84         3       -4.217248e-01
        85         3       -1.629027e-01
        86         3        1.396077e+00
        87         3       -1.986072e-01
        88         3        1.549984e-01
        89         3        3.469746e-01
        90         3        4.442897e-01
        91         3       -2.150961e+00
        92         3        1.444243e+00
        93         3       -3.636757e-02
        94         3        3.755222e-01
        95         3       -5.942397e-01
        96         3        1.914444e-01
        97         3        8.891403e-01
        98         3       -1.883298e+00
        99         3        4.531904e-01
       100         3        5.623853e-01
         1         4        2.105281e-02
         2         4       -7.210229e-01
         3         4        1.205139e+00
         4         4       -2.266612e-01
         5         4       -3.886254e-01
         6         4        4.237076e-01
         7         4       -1.472638e+00
         8         4       -8.654917e-01
         9         4        1.538433e+00
        10         4        4.163979e-01
        11         4        1.918809e-01
        12         4        9.077968e-01
        13         4        1.343873e-01
        14         4       -5.723204e-01
        15         4        1.534560e+00
        16         4       -9.888281e-01
        17         4        1.681618e+00
        18         4       -8.441401e-01
        19         4        4.050013e-01
        20         4       -3.930302e-03
        21         4        1.150989e-01
        22         4        8.372888e-01
        23         4        8.207281e-01
        24         4       -3.071940e-01
        25         4        2.641902e-01
        26         4       -4.286641e-02
        27         4        8.503748e-01
        28         4       -6.250014e-02
        29         4        1.245590e+00
        30         4       -5.767148e-01
        31         4        2.791719e-01
        32         4       -1.576934e+00
        33         4       -2.142140e+00
        34         4        6.840534e-01
        35         4        1.021559e+00
        36         4       -7.117599e-01
        37         4        1.545264e+00
        38         4       -3.463927e-01
        39         4       -1.364553e+00
        40         4       -7.776790e-01
        41         4       -1.559197e+00
        42         4       -1.672764e+00
        43         4        7.682612e-01
        44         4       -2.671967e-01
        45         4        2.127722e-01
        46         4       -2.446443e-01
        47         4        8.884940e-01
        48         4       -1.368496e+00
        49         4        3.357185e-01
        50         4       -1.210639e+00
        51         4        9.500412e-01
        52         4       -2.432652e-01
        53         4        2.116749e+00
        54         4        1.716115e+00
        55         4        6.452732e-01
        56         4       -1.443122e+00
        57         4        1.795057e+00
        58         4        1.275545e+00
        59         4        7.014322e-01
        60         4        9.719343e-01
        61         4       -1.019020e+00
        62         4       -1.067360e+00
        63         4        1.051336e+00
        64         4        2.516237e-01
        65         4        1.281205e+00
        66         4        3.843369e-02
        67         4        3.073993e-01
        68         4       -2.823355e-01
        69         4        5.137841e-01
        70         4        1.214132e+00
        71         4       -7.578457e-01
        72         4       -1.569074e+00
        73         4        6.649188e-01
        74         4       -1.821555e+00
        75         4       -1.300128e+00
        76         4        2.679100e-01
        77         4       -2.095131e+00
        78         4        1.141270e+00
        79         4        4.089967e-01
        80         4       -1.257364e+00
        81         4       -5.998273e-01
        82         4       -1.673629e-01
        83         4       -1.338633e-02
        84         4        1.266336e+00
        85         4        2.050420e+00
        86         4        1.170063e+00
        87         4        7.793336e-01
        88         4        1.974050e-01
        89         4       -8.695344e-01
        90         4       -3.602629e-01
        91         4        3.675741e-01
        92         4       -2.181955e-01
        93         4       -3.206478e-02
        94         4       -5.407253e-01
        95         4        2.072102e-02
        96         4        7.594992e-01
        97         4       -1.293906e+00
        98         4       -1.326808e+00
        99         4        1.805956e-01
       100         4       -1.409641e-01
         1         5       -2.178861e-01
         2         5        3.644968e-01
         3         5        9.126063e-01
         4         5        3.147168e-01
         5         5       -1.315532e+00
         6         5        5.953020e-01
         7         5        1.224400e+00
         8         5       -9.833338e-02
         9         5        3.782474e-01
        10         5       -8.938827e-01
        11         5        6.684757e-01
        12         5        1.532531e-01
        13         5        2.163423e-01
        14         5       -2.069244e-01
        15         5       -1.181528e+00
        16         5        1.405560e+00
        17         5        1.103740e+00
        18         5       -2.051813e+00
        19         5        1.658321e+00
        20         5        4.830997e-03
        21         5       -3.769853e-01
        22         5        1.586795e-01
        23         5       -6.113280e-01
        24         5        1.026076e+00
        25         5        1.975779e+00
        26         5        1.247708e+00
        27         5       -6.098001e-01
        28         5        1.901599e+00
        29         5       -2.575548e+00
        30         5       -1.001805e-01
        31         5       -1.580089e-02
        32         5        9.115601e-01
        33         5        9.764954e-01
        34         5       -4.402605e-01
        35         5       -1.394015e+00
        36         5        6.030835e-01
        37         5        7.661824e-01
        38         5        3.271489e-01
        39         5        4.616834e-01
        40         5       -2.538882e+00
        41         5       -8.602317e-01
        42         5       -2.672520e-01
        43         5       -1.292157e+00
        44         5        8.523297e-01
        45         5       -5.336625e-01
        46         5       -5.170940e-01
        47         5        6.747047e-01
        48         5        1.880749e+00
        49         5        1.668671e+00
        50         5       -9.378199e-02
        51         5        1.183533e+00
        52         5       -4.117308e-01
        53         5        1.342742e+00
        54         5       -1.487124e+00
        55         5        8.058703e-01
        56         5        6.241885e-01
        57         5       -1.200851e-01
        58         5        9.099145e-01
        59         5        1.332063e-01
        60         5        1.639168e-01
        61         5        6.145271e-01
        62         5       -4.118866e-01
        63         5       -1.209342e+00
        64         5       -1.397845e+00
        65         5        3.321249e-01
        66         5       -5.559798e-02
        67         5       -5.512816e-01
        68         5       -4.261089e-01
        69         5        2.305675e+00
        70         5        8.352029e-01
        71         5        1.459083e+00
        72         5        6.305066e-01
        73         5       -1.420372e+00
        74         5       -1.085980e+00
        75         5       -3.494900e-01
        76         5       -2.103282e+00
        77         5        8.376554e-01
        78         5       -8.013198e-01
        79         5       -4.600086e-01
        80         5        4.286761e-01
        81         5       -4.983636e-01
        82         5        8.212192e-01
        83         5       -4.588701e-02
        84         5        6.778626e-02
        85         5       -4.603809e-01
        86         5        8.868042e-01
        87         5        2.956163e-01
        88         5        1.434889e+00
        89         5        2.005603e-01
        90         5        4.635073e-01
        91         5        2.354285e-01
        92         5       -2.519215e-01
        93         5       -1.157100e+00
        94         5       -5.194527e-01
        95         5        5.603234e-01
        96         5        6.876071e-01
        97         5       -2.721872e-01
        98         5       -6.891415e-01
        99         5       -1.319500e+00
       100         5        9.867440e-01
;

param theta:=
    1       -7.984793e-02
    2        6.908482e-01
    3       -1.327020e+00
    4       -5.146605e-01
    5        5.102771e-01
;
param X_true:=
    1        4.305444e-01
    2        2.375287e+00
    3        1.195520e+00
    4       -1.810219e-01
    5        1.439216e+00
    6        1.412414e+00
    7        3.774600e+00
    8       -1.955231e-02
    9        7.448760e-02
   10        2.762928e+00
   11        3.796027e-02
   12       -5.242103e-01
   13        3.019961e+00
   14        3.192095e+00
   15       -2.738321e+00
   16       -7.837587e-02
   17       -1.416922e+00
   18        1.645629e+00
   19        5.488543e-01
   20        1.511073e+00
   21        2.786997e+00
   22        3.638818e-02
   23        8.303318e-01
   24        2.245801e+00
   25        5.831159e-01
   26       -1.961634e+00
   27       -1.548323e+00
   28        2.144029e+00
   29       -4.993260e-01
   30        4.329813e-01
   31       -3.177379e-01
   32       -5.857052e-01
   33        3.554308e+00
   34       -8.102586e-02
   35       -5.073561e-01
   36        1.538871e+00
   37       -1.238675e+00
   38        2.754932e-01
   39        1.274219e+00
   40       -8.978450e-01
   41        6.466083e-01
   42        5.554573e-01
   43       -3.994728e-01
   44        2.588638e-02
   45        1.211564e-01
   46       -2.235669e+00
   47        1.231835e+00
   48        3.077043e+00
   49        8.787297e-01
   50        1.890371e+00
   51       -6.873127e-01
   52        1.003753e+00
   53       -2.565154e+00
   54       -4.465302e+00
   55       -1.964764e-01
   56        1.668047e-02
   57       -2.494843e+00
   58       -3.071519e+00
   59       -1.383294e+00
   60        9.147702e-01
   61       -3.428847e+00
   62        1.156983e+00
   63       -4.451675e+00
   64        1.804242e+00
   65       -1.212035e+00
   66        3.352056e-01
   67       -1.677187e+00
   68        2.623686e+00
   69       -4.007269e-01
   70        1.920524e-02
   71        6.109720e-01
   72        1.213947e+00
   73       -3.049540e+00
   74        2.548915e+00
   75        2.546447e-01
   76       -3.925190e-01
   77        1.327513e+00
   78       -2.720285e-01
   79       -7.175520e-01
   80        1.357385e+00
   81        2.827828e+00
   82       -1.961928e-01
   83       -1.230333e+00
   84       -3.032950e-02
   85       -1.834552e+00
   86       -1.897227e+00
   87        2.764913e-02
   88        1.670214e+00
   89       -3.985640e-01
   90       -1.181782e+00
   91        2.879101e+00
   92       -2.959916e+00
   93       -1.794172e+00
   94       -8.685210e-01
   95        7.208098e-01
   96       -8.116605e-01
   97       -1.750992e-02
   98        2.539076e+00
   99       -2.323970e+00
  100       -1.425864e+00
;
param X:=
    1       -1.156513e+00
    2       -1.377920e+00
    3       -8.251500e-01
    4       -7.432225e-01
    5        8.529690e-01
    6       -3.512472e-01
    7        3.774600e+00
    8        4.431197e-01
    9        7.448760e-02
   10       -7.264872e-01
   11       -1.207725e-01
   12        1.669256e-01
   13        6.853015e-01
   14       -1.824591e+00
   15       -2.044640e-01
   16       -1.051715e+00
   17       -1.416922e+00
   18        1.645629e+00
   19       -6.667257e-01
   20        1.511073e+00
   21        1.245741e+00
   22       -1.258875e+00
   23       -1.810170e-01
   24       -1.117781e+00
   25        5.831159e-01
   26        6.497416e-02
   27        2.315275e+00
   28       -2.743554e-01
   29       -2.082242e+00
   30       -3.408211e-01
   31       -1.087791e+00
   32       -8.433569e-02
   33        3.554308e+00
   34        6.466402e-01
   35       -4.690962e-01
   36        3.951587e-01
   37       -1.238675e+00
   38       -1.397184e-01
   39        1.274219e+00
   40       -2.775013e-01
   41        8.773057e-01
   42        9.304007e-01
   43        9.084901e-01
   44       -4.903969e-01
   45        1.211564e-01
   46        1.835153e-01
   47        1.142342e+00
   48        3.077043e+00
   49       -1.011527e+00
   50        2.947272e-01
   51       -9.885679e-03
   52        1.003753e+00
   53        1.843799e-01
   54       -4.465302e+00
   55       -1.964764e-01
   56       -1.444450e-01
   57       -1.173274e+00
   58        1.441541e+00
   59        2.968235e-01
   60        1.626817e+00
   61       -3.428847e+00
   62        3.041619e-01
   63       -1.319770e-01
   64       -1.626224e-01
   65       -5.290042e-01
   66        3.352056e-01
   67        9.616051e-01
   68        2.623686e+00
   69       -9.999973e-01
   70        1.920524e-02
   71       -3.330309e-01
   72       -2.713408e-01
   73       -3.049540e+00
   74       -3.227798e-01
   75       -3.807432e-01
   76       -1.722770e+00
   77        3.195382e-02
   78        7.018909e-01
   79       -1.910433e-01
   80        1.011923e+00
   81       -3.370611e-01
   82       -1.204397e+00
   83       -9.299025e-01
   84       -1.591074e+00
   85        5.562182e-01
   86       -7.332711e-01
   87        2.764913e-02
   88       -1.001223e-01
   89        8.739361e-01
   90        9.132262e-01
   91       -1.313304e-02
   92       -4.055322e-01
   93       -4.066421e-01
   94       -8.685210e-01
   95        7.208098e-01
   96        1.032995e+00
   97        8.438611e-02
   98       -1.379157e+00
   99       -3.151864e-01
  100        1.793777e+00
;
param outliervec:=
    1    1
    2    1
    3    1
    4    1
    5    1
    6    1
    7    0
    8    1
    9    0
   10    1
   11    1
   12    1
   13    1
   14    1
   15    1
   16    1
   17    0
   18    0
   19    1
   20    0
   21    1
   22    1
   23    1
   24    1
   25    0
   26    1
   27    1
   28    1
   29    1
   30    1
   31    1
   32    1
   33    0
   34    1
   35    1
   36    1
   37    0
   38    1
   39    0
   40    1
   41    1
   42    1
   43    1
   44    1
   45    0
   46    1
   47    1
   48    0
   49    1
   50    1
   51    1
   52    0
   53    1
   54    0
   55    0
   56    1
   57    1
   58    1
   59    1
   60    1
   61    0
   62    1
   63    1
   64    1
   65    1
   66    0
   67    1
   68    0
   69    1
   70    0
   71    1
   72    1
   73    0
   74    1
   75    1
   76    1
   77    1
   78    1
   79    1
   80    1
   81    1
   82    1
   83    1
   84    1
   85    1
   86    1
   87    0
   88    1
   89    1
   90    1
   91    1
   92    1
   93    1
   94    0
   95    0
   96    1
   97    1
   98    1
   99    1
  100    1
;